78
13
89
82
0
94
69
29
82
178
17
129
57
41
182
0
35
173
63
57
227
153
61
195
74
23
15
76
0
64
10
15
162
31
31
11
125
143
0
48
47
51
93
30
38
117
16
29
63
66
42
35
24
206
56
36
53
53
86
53
175
100
81
139
42
168
46
50
23
63
50
88
0
101
121
42
149
82
77
19
123
115
78
30
0
118
54
73
67
43
138
107
44
13
163
157
143
180
158
13
